computational_data/real_data/solutions/iris_trial_001_lex.sol
Optimal - objective value 5.86666800
      3 r_3                         1                0.966667
     13 r_13                        1                0.966667
     23 r_23                        1                       1
     26 b_0                         1                0.966667
     27 b_1                         1                       1
     38 b_12                        1                0.966667
