computational_data/real_data/logs/iris_trial_001_lex.log
Welcome to the CBC MILP Solver 
Version: 2.10.12 
Build Date: Aug 20 2024 

command line - /opt/homebrew/bin/cbc computational_data/real_data/lp/iris_trial_001_lex.lp seconds 10.0 solve solu computational_data/real_data/solutions/iris_trial_001_lex.sol (default strategy 1)
 CoinLpIO::readLp(): Maximization problem reformulated as minimization
Coin0009I Switching back to maximization to get correct duals etc
seconds was changed from 1e+100 to 10
Continuous objective value is 5.89402 - 0.00 seconds
Cgl0003I 0 fixed, 0 tightened bounds, 255 strengthened rows, 4 substitutions
Cgl0003I 0 fixed, 0 tightened bounds, 236 strengthened rows, 0 substitutions
Cgl0003I 0 fixed, 0 tightened bounds, 234 strengthened rows, 0 substitutions
Cgl0003I 0 fixed, 0 tightened bounds, 229 strengthened rows, 0 substitutions
Cgl0003I 0 fixed, 0 tightened bounds, 226 strengthened rows, 0 substitutions
Cgl0003I 0 fixed, 0 tightened bounds, 224 strengthened rows, 0 substitutions
Cgl0003I 0 fixed, 0 tightened bounds, 220 strengthened rows, 0 substitutions
Cgl0003I 0 fixed, 0 tightened bounds, 181 strengthened rows, 0 substitutions
Cgl0003I 0 fixed, 0 tightened bounds, 113 strengthened rows, 0 substitutions
Cgl0004I processed model has 287 rows, 48 columns (48 integer (48 of which binary)) and 2908 elements
Cbc0038I Initial state - 46 integers unsatisfied sum - 3.96923
Cbc0038I Pass   1: suminf.    0.00000 (0) obj. 5.86667 iterations 42
Cbc0038I Solution found of 5.86667
Cbc0038I Before mini branch and bound, 2 integers at bound fixed and 0 continuous
Cbc0038I Full problem 287 rows 48 columns, reduced to 236 rows 46 columns - 1 fixed gives 145, 33 - still too large
Cbc0038I Full problem 287 rows 48 columns, reduced to 145 rows 33 columns - too large
Cbc0038I Mini branch and bound did not improve solution (0.03 seconds)
Cbc0038I Round again with cutoff of 5.86719
Cbc0038I Pass   2: suminf.    0.65749 (35) obj. 5.86719 iterations 43
Cbc0038I Pass   3: suminf.    0.65749 (35) obj. 5.86719 iterations 0
Cbc0038I Pass   4: suminf.    0.68880 (26) obj. 5.86719 iterations 16
Cbc0038I Pass   5: suminf.    0.65749 (35) obj. 5.86719 iterations 11
Cbc0038I Pass   6: suminf.    0.65749 (35) obj. 5.86719 iterations 21
Cbc0038I Pass   7: suminf.    0.65749 (35) obj. 5.86719 iterations 6
Cbc0038I Pass   8: suminf.    0.65749 (35) obj. 5.86719 iterations 26
Cbc0038I Pass   9: suminf.    0.65749 (35) obj. 5.86719 iterations 2
Cbc0038I Pass  10: suminf.    0.65749 (35) obj. 5.86719 iterations 5
Cbc0038I Pass  11: suminf.    0.65749 (35) obj. 5.86719 iterations 1
Cbc0038I Pass  12: suminf.    0.65749 (35) obj. 5.86719 iterations 5
Cbc0038I Pass  13: suminf.    0.65749 (35) obj. 5.86719 iterations 1
Cbc0038I Pass  14: suminf.    0.65749 (24) obj. 5.86719 iterations 38
Cbc0038I Pass  15: suminf.    0.65749 (35) obj. 5.86719 iterations 15
Cbc0038I Pass  16: suminf.    0.65749 (35) obj. 5.86719 iterations 13
Cbc0038I Pass  17: suminf.    0.65749 (35) obj. 5.86719 iterations 9
Cbc0038I Pass  18: suminf.    0.65749 (35) obj. 5.86719 iterations 12
Cbc0038I Pass  19: suminf.    0.65749 (35) obj. 5.86719 iterations 9
Cbc0038I Pass  20: suminf.    0.68880 (26) obj. 5.86719 iterations 16
Cbc0038I Pass  21: suminf.    0.65749 (35) obj. 5.86719 iterations 8
Cbc0038I Pass  22: suminf.    0.68880 (26) obj. 5.86719 iterations 38
Cbc0038I Pass  23: suminf.    0.65749 (35) obj. 5.86719 iterations 16
Cbc0038I Pass  24: suminf.    0.65749 (35) obj. 5.86719 iterations 13
Cbc0038I Pass  25: suminf.    0.65749 (35) obj. 5.86719 iterations 9
Cbc0038I Pass  26: suminf.    0.68880 (26) obj. 5.86719 iterations 30
Cbc0038I Pass  27: suminf.    0.65749 (35) obj. 5.86719 iterations 16
Cbc0038I Pass  28: suminf.    0.65749 (35) obj. 5.86719 iterations 26
Cbc0038I Pass  29: suminf.    0.65749 (35) obj. 5.86719 iterations 1
Cbc0038I Pass  30: suminf.    0.65749 (24) obj. 5.86719 iterations 38
Cbc0038I Pass  31: suminf.    0.65749 (35) obj. 5.86719 iterations 18
Cbc0038I No solution found this major pass
Cbc0038I Before mini branch and bound, 2 integers at bound fixed and 0 continuous
Cbc0038I Full problem 287 rows 48 columns, reduced to 236 rows 46 columns - 0 fixed gives 236, 46 - still too large
Cbc0038I Mini branch and bound did not improve solution (0.03 seconds)
Cbc0038I After 0.03 seconds - Feasibility pump exiting with objective of 5.86667 - took 0.01 seconds
Cbc0012I Integer solution of 5.866668 found by feasibility pump after 0 iterations and 0 nodes (0.03 seconds)
Cbc0031I 4 added rows had average density of 17.75
Cbc0013I At root node, 12 cuts changed objective from 5.8717962 to 5.866668 in 1 passes
Cbc0014I Cut generator 0 (Probing) - 4 row cuts average 11.5 elements, 0 column cuts (0 active)  in 0.001 seconds - new frequency is 1
Cbc0014I Cut generator 1 (Gomory) - 4 row cuts average 30.0 elements, 0 column cuts (0 active)  in 0.000 seconds - new frequency is 1
Cbc0014I Cut generator 2 (Knapsack) - 0 row cuts average 0.0 elements, 0 column cuts (0 active)  in 0.000 seconds - new frequency is -100
Cbc0014I Cut generator 3 (Clique) - 0 row cuts average 0.0 elements, 0 column cuts (0 active)  in 0.000 seconds - new frequency is -100
Cbc0014I Cut generator 4 (MixedIntegerRounding2) - 0 row cuts average 0.0 elements, 0 column cuts (0 active)  in 0.000 seconds - new frequency is -100
Cbc0014I Cut generator 5 (FlowCover) - 0 row cuts average 0.0 elements, 0 column cuts (0 active)  in 0.000 seconds - new frequency is -100
Cbc0014I Cut generator 6 (TwoMirCuts) - 4 row cuts average 24.0 elements, 0 column cuts (0 active)  in 0.001 seconds - new frequency is -100
Cbc0001I Search completed - best objective 5.866668, took 0 iterations and 0 nodes (0.04 seconds)
Cbc0035I Maximum depth 0, 0 variables fixed on reduced cost
Cuts at root node changed objective from 5.8718 to 5.86667
Probing was tried 1 times and created 4 cuts of which 0 were active after adding rounds of cuts (0.001 seconds)
Gomory was tried 1 times and created 4 cuts of which 0 were active after adding rounds of cuts (0.000 seconds)
Knapsack was tried 1 times and created 0 cuts of which 0 were active after adding rounds of cuts (0.000 seconds)
Clique was tried 1 times and created 0 cuts of which 0 were active after adding rounds of cuts (0.000 seconds)
MixedIntegerRounding2 was tried 1 times and created 0 cuts of which 0 were active after adding rounds of cuts (0.000 seconds)
FlowCover was tried 1 times and created 0 cuts of which 0 were active after adding rounds of cuts (0.000 seconds)
TwoMirCuts was tried 1 times and created 4 cuts of which 0 were active after adding rounds of cuts (0.001 seconds)
ZeroHalf was tried 1 times and created 0 cuts of which 0 were active after adding rounds of cuts (0.002 seconds)

Result - Optimal solution found

Objective value:                5.86666800
Enumerated nodes:               0
Total iterations:               0
Time (CPU seconds):             0.04
Time (Wallclock seconds):       0.04

Total time (CPU seconds):       0.04   (Wallclock seconds):       0.04

